# 90234
param n := 20;
param s := 1;
set E :=  (0,4) (1,2) (1,3) (1,18) (2,5) (2,11) (4,12) (4,16) (5,6) (5,13) (6,9) (7,9) (7,11) (7,14) (8,11) (8,19) (9,13) (10,14) (10,15) (10,17) (12,19) (14,16) (14,19) (17,19);
